17	4
12	15	15	16	
0	0	0	0	0	3	2	3	4	
5	5	0	8	3	2	6	9	
4	6	7	8	0	1	11	
7	8	0	4	5	3	5	7	17	
3	3	9	2	8	3	8	13	17	
250	5	3	6	9	1	12	
100	1	8	1	8	3	10	17	17	
50	5	5	0	3	1	17	
175	2	3	0	0	3	13	17	17	
175	1	0	0	8	1	17	
75	5	9	0	6	2	16	17	
50	2	10	4	0	1	15	
4	0	4	7	4	2	14	17	
2	3	8	2	0	1	17	
2	0	1	0	2	1	17	
7	3	9	5	6	1	17	
0	0	0	0	0	0	
